letting n_nurses=25
letting n_days=7
letting n_shift_types=4
letting max_covers=13
letting t_covers=87
letting covers=[2,0,11,0,12,2,0,0,13,1,2,0,12,2,0,0,0,5,1,0,8,0,2,0,2,12,0,0]
letting prefes=[4,4,1,4,4,4,4,4,1,1,1,2,4,4,4,4,1,1,1,2,4,4,1,4,4,4,4,4,1,4,1,4,4,4,4,4,1,2,1,2,4,4,4,4,1,2,1,2,1,4,1,4,4,4,4,4,1,4,1,4,1,4,4,1,1,1,1,2,1,4,4,1,1,1,1,2,1,4,1,4,1,4,4,1,1,4,4,4,1,4,4,4,1,1,1,2,1,4,4,4,1,1,1,2,1,4,4,4,1,4,4,4,4,4,4,4,1,1,1,1,1,1,1,1,1,1,1,1,1,1,1,1,4,4,4,4,1,1,1,1,1,1,1,1,1,4,1,4,2,1,2,1,1,4,1,4,2,1,2,1,1,1,1,1,1,4,1,4,1,4,1,4,1,4,4,4,1,1,1,2,1,4,4,4,1,1,1,2,1,4,1,4,1,4,4,4,1,4,1,4,1,4,1,4,1,1,1,2,1,4,1,4,1,1,1,2,1,4,1,4,1,4,1,4,1,4,1,4,1,4,4,4,1,1,1,2,1,4,4,4,1,1,1,2,1,4,1,4,1,4,4,4,1,4,1,4,1,4,1,4,2,2,2,2,1,4,1,4,2,2,2,2,1,4,1,4,1,4,1,4,4,1,4,1,1,4,4,1,1,2,1,2,1,4,4,1,1,2,1,2,4,1,4,1,1,4,4,1,1,1,1,1,1,4,4,4,1,1,1,2,1,4,4,4,1,1,1,2,1,1,1,1,1,4,4,4,3,4,3,4,1,4,4,4,1,1,1,2,1,4,4,4,1,1,1,2,3,4,3,4,1,4,4,4,1,4,1,4,1,4,4,4,1,1,1,1,1,4,4,4,1,1,1,1,1,4,1,4,1,4,4,4,1,4,1,4,4,4,4,4,1,1,1,2,4,4,4,4,1,1,1,2,1,4,1,4,4,4,4,4,1,4,1,4,1,1,4,4,1,1,1,1,1,1,4,4,1,1,1,1,1,4,1,4,1,1,4,4,1,1,1,1,1,1,4,4,1,1,1,2,1,1,4,4,1,1,1,2,1,1,1,1,1,1,4,4,4,4,4,4,4,4,4,4,1,1,1,2,4,4,4,4,1,1,1,2,4,4,4,4,4,4,4,4,1,4,1,4,1,4,4,1,2,1,2,2,1,4,4,1,2,1,2,2,1,4,1,4,1,4,4,1,1,4,1,4,1,4,4,4,1,1,1,2,1,4,4,4,1,1,1,2,1,4,1,4,1,4,4,4,1,4,1,4,1,4,1,4,1,1,1,2,1,4,1,4,1,1,1,2,1,4,1,4,1,4,1,4,1,4,1,4,1,4,4,4,1,1,1,1,1,4,4,4,1,1,1,1,1,4,1,4,1,4,4,4,1,4,1,4,1,1,4,4,2,2,2,2,1,1,4,4,2,2,2,2,1,4,1,4,1,1,4,4,1,1,1,1,1,1,4,1,1,2,1,2,1,1,4,1,1,2,1,2,1,1,1,1,1,1,4,1,1,4,1,4,4,4,4,4,2,1,2,2,4,4,4,4,2,1,2,2,1,4,1,4,4,4,4,4]
letting ub =  266
